<instance format="XCSP3" type="CSP">
  <variables>
    <var id="x0"> 1 12 17 </var>
    <var id="x1"> 2 6 12 14 </var>
    <var id="x2"> 0 2 </var>
    <var id="x3"> 0 2 6 12 14 17 </var>
    <var id="x4"> 0 2 6 12 </var>
    <var id="x5"> 12 17 </var>
    <var id="x6"> 2 6 13 </var>
    <var id="x7"> 1 6 14 17 </var>
    <var id="x8"> 2 3 7 12 13 </var>
    <var id="x9"> 0 6 12 13 </var>
    <var id="x10"> 2 3 6 12 14 </var>
    <var id="x11"> 0 2 6 14 </var>
    <var id="x12"> 0 3 6 14 </var>
    <var id="x13"> 3 12 </var>
    <var id="x14"> 2 6 7 13 </var>
    <var id="x15"> 6 7 14 </var>
    <var id="x16"> 1 5 12 15 </var>
    <var id="x17"> 1 5 12 15 </var>
    <var id="x18"> 1 5 6 12 </var>
    <var id="x19"> 1 9 12 15 </var>
    <var id="x20"> 4 5 8 12 </var>
    <var id="x21"> 1 6 8 </var>
    <var id="x22"> 4 8 9 12 </var>
    <var id="x23"> 1 5 6 8 </var>
    <var id="x24"> 5 11 17 </var>
    <var id="x25"> 0 5 17 </var>
    <var id="x26"> 2 5 11 </var>
    <var id="x27"> 0 2 5 7 17 </var>
    <var id="x28"> 0 2 7 11 </var>
    <var id="x29"> 7 17 </var>
    <var id="x30"> 2 5 7 8 11 </var>
    <var id="x31"> 2 7 9 11 </var>
    <var id="x32"> 3 10 12 16 </var>
    <var id="x33"> 3 5 11 12 </var>
    <var id="x34"> 5 11 12 16 17 </var>
    <var id="x35"> 6 10 16 17 </var>
    <var id="x36"> 3 5 10..12 </var>
    <var id="x37"> 6 10 12 16 17 </var>
    <var id="x38"> 6 12 17 </var>
    <var id="x39"> 3 11 16 </var>
    <var id="x40"> 1 2 5 </var>
    <var id="x41"> 1 5 </var>
    <var id="x42"> 2 5 9 10 </var>
    <var id="x43"> 1 6 14 </var>
    <var id="x44"> 6 7 10 14 </var>
    <var id="x45"> 9 10 </var>
    <var id="x46"> 1 5..7 14 </var>
    <var id="x47"> 1 2 6 7 9 </var>
    <var id="x48"> 2 5 12 </var>
    <var id="x49"> 0 5 12 13 17 </var>
    <var id="x50"> 12..14 </var>
    <var id="x51"> 5 12 14 </var>
    <var id="x52"> 0 2 5 12 14 17 </var>
    <var id="x53"> 2 5 13 </var>
    <var id="x54"> 5 14 16 17 </var>
    <var id="x55"> 0 2 12 17 </var>
    <var id="x56"> 7 9 10 12 </var>
    <var id="x57"> 10 12 </var>
    <var id="x58"> 9 12 14 </var>
    <var id="x59"> 8 10..12 14 </var>
    <var id="x60"> 7 12 14 </var>
    <var id="x61"> 7 10 12 14 </var>
    <var id="x62"> 8..10 12 </var>
    <var id="x63"> 1 3 5 15 </var>
    <var id="x64"> 1 5 6 17 </var>
    <var id="x65"> 5 15 </var>
    <var id="x66"> 6 14 16 17 </var>
    <var id="x67"> 1 3 14 15 </var>
    <var id="x68"> 5 6 14 17 </var>
    <var id="x69"> 1 3 6 14 17 </var>
    <var id="x70"> 1 3 16 </var>
    <var id="x71"> 2 3 5 </var>
    <var id="x72"> 0 2 5 8 9 </var>
    <var id="x73"> 1 3 9 </var>
    <var id="x74"> 3 5 8 </var>
    <var id="x75"> 0 2 5 17 </var>
    <var id="x76"> 3 8 9 17 </var>
    <var id="x77"> 2 5 8 </var>
    <var id="x78"> 0..2 9 17 </var>
    <var id="x79"> 2 11 12 15 </var>
    <var id="x80"> 2 4 10 16 17 </var>
    <var id="x81"> 4 10..12 </var>
    <var id="x82"> 11 17 </var>
    <var id="x83"> 2 10..12 16 </var>
    <var id="x84"> 4 10 12 16 17 </var>
    <var id="x85"> 2 11 15 </var>
    <var id="x86"> 2 12 17 </var>
    <var id="x87"> 3 7 12 16 </var>
    <var id="x88"> 3 11 12 14 15 </var>
    <var id="x89"> 14 16 17 </var>
    <var id="x90"> 3 12 14 15 </var>
    <var id="x91"> 3 11 12 14 </var>
    <var id="x92"> 7 11 12 16 </var>
    <var id="x93"> 7 14 16 17 </var>
    <var id="x94"> 7 12 17 </var>
    <var id="x95"> 1 3 </var>
    <var id="x96"> 3 6 </var>
    <var id="x97"> 0 6 16 </var>
    <var id="x98"> 0 1 3 6 8 </var>
    <var id="x99"> 3 8 16 </var>
    <var id="x100"> 1 6..8 16 </var>
    <var id="x101"> 1 3 7 16 </var>
    <var id="x102"> 3 9 10 12 </var>
    <var id="x103"> 11 12 </var>
    <var id="x104"> 0 9..11 </var>
    <var id="x105"> 0 6 12 </var>
    <var id="x106"> 0 6 10..12 </var>
    <var id="x107"> 4 6 10 12 </var>
    <var id="x108"> 3 4 9 10 12 </var>
    <var id="x109"> 0 6 9 12 </var>
    <var id="x110"> 2 10 11 </var>
    <var id="x111"> 1 3 12 14 </var>
    <var id="x112"> 2 12 14 </var>
    <var id="x113"> 2 10..12 </var>
    <var id="x114"> 10 12 14 </var>
    <var id="x115"> 2 11 </var>
    <var id="x116"> 1..3 11 </var>
    <var id="x117"> 2 7 10 12 </var>
    <var id="x118"> 2 5 11 12 15 </var>
    <var id="x119"> 5 6 10 12 </var>
    <var id="x120"> 2 6 10 </var>
    <var id="x121"> 6 11 </var>
    <var id="x122"> 5..7 </var>
    <var id="x123"> 2 6 7 12 </var>
    <var id="x124"> 2 7 11 </var>
    <var id="x125"> 2 7 13 16 </var>
    <var id="x126"> 15..17 </var>
    <var id="x127"> 2 15 </var>
    <var id="x128"> 2 8 15 </var>
    <var id="x129"> 4 8 </var>
    <var id="x130"> 2 7 16 </var>
    <var id="x131"> 2 7 8 13 15 </var>
    <var id="x132"> 2 7 13 16 </var>
    <var id="x133"> 10 12 13 16 </var>
    <var id="x134"> 1 5 6 10 12 13 </var>
    <var id="x135"> 5 10 11 </var>
    <var id="x136"> 6 10 16 </var>
    <var id="x137"> 1 6 11 </var>
    <var id="x138"> 6 10..12 16 </var>
    <var id="x139"> 6 10 12 16 </var>
    <var id="x140"> 1 11 13 16 </var>
  </variables>
  <constraints>
    <group>
      <allDifferent> %... </allDifferent>
      <args> x0 x1 x2 x3 x4 x5 x6 x7 </args>
      <args> x8 x9 x10 x11 x12 x13 x14 x15 </args>
      <args> x16 x17 x18 x19 x20 x21 x22 x23 </args>
      <args> x24 x25 x26 x27 x28 x29 x30 x31 </args>
      <args> x32 x33 x34 x35 x36 x37 x38 x39 </args>
      <args> x40 x41 x42 x43 x44 x45 x46 x47 </args>
      <args> x48 x49 x50 x51 x52 x53 x54 x55 </args>
      <args> x56 x57 x58 x59 x60 x61 x62 </args>
      <args> x63 x64 x65 x66 x67 x68 x69 x70 </args>
      <args> x71 x72 x73 x74 x75 x76 x77 x78 </args>
      <args> x79 x80 x81 x82 x83 x84 x85 x86 </args>
      <args> x87 x88 x89 x90 x91 x92 x93 x94 </args>
      <args> x95 x96 x97 x98 x99 x100 x101 </args>
      <args> x102 x103 x104 x105 x106 x107 x108 x109 </args>
      <args> x110 x111 x112 x113 x114 x115 x116 </args>
      <args> x117 x118 x119 x120 x121 x122 x123 x124 </args>
      <args> x125 x126 x127 x128 x129 x130 x131 x132 </args>
      <args> x133 x134 x135 x136 x137 x138 x139 x140 </args>
      <args> x8 x32 x56 x87 x102 x117 x125 x133 </args>
      <args> x16 x33 x40 x48 x63 x95 x118 </args>
      <args> x0 x17 x24 x34 x41 x103 x126 </args>
      <args> x9 x18 x25 x49 x57 x64 x119 x134 </args>
      <args> x1 x10 x26 x71 x79 x88 x96 x127 </args>
      <args> x2 x42 x65 x72 x104 x110 x128 x135 </args>
      <args> x11 x35 x66 x80 x89 x97 x120 x136 </args>
      <args> x19 x50 x58 x67 x73 x90 x111 </args>
      <args> x20 x36 x51 x59 x74 x81 x91 x129 </args>
      <args> x3 x27 x52 x60 x68 x75 x105 x112 </args>
      <args> x12 x21 x43 x69 x82 x98 x121 x137 </args>
      <args> x4 x28 x83 x92 x106 x113 x130 x138 </args>
      <args> x29 x37 x44 x61 x84 x107 x114 x139 </args>
      <args> x5 x13 x22 x45 x62 x76 x99 x108 </args>
      <args> x6 x14 x30 x53 x77 x85 x115 x131 </args>
      <args> x7 x15 x23 x46 x54 x93 x100 x122 </args>
      <args> x38 x47 x55 x78 x86 x94 x109 x123 </args>
      <args> x31 x39 x70 x101 x116 x124 x132 x140 </args>
    </group>
  </constraints>
</instance>

